(set-logic QF_LIA)
(declare-fun x0 () Int)
(declare-fun x1 () Int)
(declare-fun x2 () Int)
(declare-fun x3 () Int)
(declare-fun x4 () Int)
(declare-fun x5 () Int)
(declare-fun x6 () Int)
(declare-fun x7 () Int)
(declare-fun x8 () Int)
(declare-fun x9 () Int)
(declare-fun A4 () Bool)
(declare-fun A6 () Bool)
(declare-fun A7 () Bool)
(declare-fun A8 () Bool)
(declare-fun A9 () Bool)
(assert (let ((.def_0 (not A9))) (let ((.def_1 (* 1 x1))) (let ((.def_2 (* 1 x0))) (let ((.def_3 (+ .def_2 .def_1))) (let ((.def_4 (< .def_3 1))) (let ((.def_5 (not .def_4))) (let ((.def_6 (and .def_5 .def_0))) (let ((.def_7 (not .def_6))) (let ((.def_8 (* (- 1) x3))) (let ((.def_9 (< .def_8 (- 1)))) (let ((.def_10 (* (- 1) x9))) (let ((.def_11 (< .def_10 (- 1)))) (let ((.def_12 (or .def_11 .def_9))) (let ((.def_13 (= .def_12 .def_7))) (let ((.def_14 (not .def_13))) (let ((.def_15 (not A8))) (let ((.def_16 (not A7))) (let ((.def_17 (and .def_16 .def_15))) (let ((.def_18 (* 1 x3))) (let ((.def_19 (< .def_18 (- 1)))) (let ((.def_20 (= A6 .def_19))) (let ((.def_21 (not .def_20))) (let ((.def_22 (and .def_21 .def_17))) (let ((.def_23 (= .def_22 .def_14))) (let ((.def_24 (not .def_23))) (let ((.def_25 (* (- 1) x1))) (let ((.def_26 (* (- 1) x6))) (let ((.def_27 (+ .def_26 .def_25))) (let ((.def_28 (< .def_27 1))) (let ((.def_29 (not A4))) (let ((.def_30 (or .def_29 .def_28))) (let ((.def_31 (* 1 x9))) (let ((.def_32 (* 1 x6))) (let ((.def_33 (+ .def_32 .def_31))) (let ((.def_34 (< .def_33 (- 1)))) (let ((.def_35 (not .def_34))) (let ((.def_36 (and .def_16 .def_35))) (let ((.def_37 (not .def_36))) (let ((.def_38 (or .def_37 .def_30))) (let ((.def_39 (< .def_1 (- 1)))) (let ((.def_40 (not .def_39))) (let ((.def_41 (or .def_40 A4))) (let ((.def_42 (* 1 x2))) (let ((.def_43 (< .def_42 (- 1)))) (let ((.def_44 (not .def_43))) (let ((.def_45 (or .def_44 A6))) (let ((.def_46 (= .def_45 .def_41))) (let ((.def_47 (not .def_46))) (let ((.def_48 (or .def_47 .def_38))) (let ((.def_49 (not .def_48))) (let ((.def_50 (or .def_49 .def_24))) (let ((.def_51 (<= x9 1))) (let ((.def_52 (<= 0 x9))) (let ((.def_53 (<= x8 1))) (let ((.def_54 (<= 0 x8))) (let ((.def_55 (<= x7 1))) (let ((.def_56 (<= 0 x7))) (let ((.def_57 (<= x6 1))) (let ((.def_58 (<= 0 x6))) (let ((.def_59 (<= x5 1))) (let ((.def_60 (<= 0 x5))) (let ((.def_61 (<= x4 1))) (let ((.def_62 (<= 0 x4))) (let ((.def_63 (<= x3 1))) (let ((.def_64 (<= 0 x3))) (let ((.def_65 (<= x2 1))) (let ((.def_66 (<= 0 x2))) (let ((.def_67 (<= x1 1))) (let ((.def_68 (<= 0 x1))) (let ((.def_69 (<= x0 1))) (let ((.def_70 (<= 0 x0))) (let ((.def_71 (and .def_70 .def_69 .def_68 .def_67 .def_66 .def_65 .def_64 .def_63 .def_62 .def_61 .def_60 .def_59 .def_58 .def_57 .def_56 .def_55 .def_54 .def_53 .def_52 .def_51 .def_50))) .def_71)))))))))))))))))))))))))))))))))))))))))))))))))))))))))))))))))))))))))
(check-sat)
